p tw 50 57
1 2
2 13
3 4
4 5
5 42
6 7
7 8
8 9
8 18
9 10
10 11
11 12
11 15
12 14
13 24
14 42
15 16
16 17
17 42
18 19
19 20
20 21
20 23
21 22
22 23
22 33
23 25
24 35
25 26
26 27
27 28
27 30
28 29
29 42
30 31
31 32
32 42
33 34
34 36
35 46
35 6
36 37
37 38
37 40
38 39
39 42
40 41
41 42
42 43
43 44
44 45
46 47
47 48
48 49
48 3
49 50
50 42
